c generated by sgen1
c Command: ./sgen1 -unsat -n 115 -s 100 
p cnf 117 244
-2 -3 -4 0
-1 -3 -4 0
-1 -2 -4 0
-1 -2 -3 0
-6 -7 -8 0
-5 -7 -8 0
-5 -6 -8 0
-5 -6 -7 0
-10 -11 -12 0
-9 -11 -12 0
-9 -10 -12 0
-9 -10 -11 0
-14 -15 -16 0
-13 -15 -16 0
-13 -14 -16 0
-13 -14 -15 0
-18 -19 -20 0
-17 -19 -20 0
-17 -18 -20 0
-17 -18 -19 0
-22 -23 -24 0
-21 -23 -24 0
-21 -22 -24 0
-21 -22 -23 0
-26 -27 -28 0
-25 -27 -28 0
-25 -26 -28 0
-25 -26 -27 0
-30 -31 -32 0
-29 -31 -32 0
-29 -30 -32 0
-29 -30 -31 0
-34 -35 -36 0
-33 -35 -36 0
-33 -34 -36 0
-33 -34 -35 0
-38 -39 -40 0
-37 -39 -40 0
-37 -38 -40 0
-37 -38 -39 0
-42 -43 -44 0
-41 -43 -44 0
-41 -42 -44 0
-41 -42 -43 0
-46 -47 -48 0
-45 -47 -48 0
-45 -46 -48 0
-45 -46 -47 0
-50 -51 -52 0
-49 -51 -52 0
-49 -50 -52 0
-49 -50 -51 0
-54 -55 -56 0
-53 -55 -56 0
-53 -54 -56 0
-53 -54 -55 0
-58 -59 -60 0
-57 -59 -60 0
-57 -58 -60 0
-57 -58 -59 0
-62 -63 -64 0
-61 -63 -64 0
-61 -62 -64 0
-61 -62 -63 0
-66 -67 -68 0
-65 -67 -68 0
-65 -66 -68 0
-65 -66 -67 0
-70 -71 -72 0
-69 -71 -72 0
-69 -70 -72 0
-69 -70 -71 0
-74 -75 -76 0
-73 -75 -76 0
-73 -74 -76 0
-73 -74 -75 0
-78 -79 -80 0
-77 -79 -80 0
-77 -78 -80 0
-77 -78 -79 0
-82 -83 -84 0
-81 -83 -84 0
-81 -82 -84 0
-81 -82 -83 0
-86 -87 -88 0
-85 -87 -88 0
-85 -86 -88 0
-85 -86 -87 0
-90 -91 -92 0
-89 -91 -92 0
-89 -90 -92 0
-89 -90 -91 0
-94 -95 -96 0
-93 -95 -96 0
-93 -94 -96 0
-93 -94 -95 0
-98 -99 -100 0
-97 -99 -100 0
-97 -98 -100 0
-97 -98 -99 0
-102 -103 -104 0
-101 -103 -104 0
-101 -102 -104 0
-101 -102 -103 0
-106 -107 -108 0
-105 -107 -108 0
-105 -106 -108 0
-105 -106 -107 0
-110 -111 -112 0
-109 -111 -112 0
-109 -110 -112 0
-109 -110 -111 0
-113 -114 -115 0
-113 -114 -116 0
-113 -114 -117 0
-113 -115 -116 0
-113 -115 -117 0
-113 -116 -117 0
-114 -115 -116 0
-114 -115 -117 0
-114 -116 -117 0
-115 -116 -117 0
58 53 34 0
108 53 34 0
108 58 34 0
108 58 53 0
4 14 102 0
87 14 102 0
87 4 102 0
87 4 14 0
80 36 38 0
23 36 38 0
23 80 38 0
23 80 36 0
98 40 60 0
44 40 60 0
44 98 60 0
44 98 40 0
59 84 104 0
72 84 104 0
72 59 104 0
72 59 84 0
35 86 75 0
100 86 75 0
100 35 75 0
100 35 86 0
30 82 48 0
90 82 48 0
90 30 48 0
90 30 82 0
97 46 49 0
67 46 49 0
67 97 49 0
67 97 46 0
32 16 62 0
113 16 62 0
113 32 62 0
113 32 16 0
33 45 116 0
8 45 116 0
8 33 116 0
8 33 45 0
18 99 110 0
95 99 110 0
95 18 110 0
95 18 99 0
91 15 57 0
65 15 57 0
65 91 57 0
65 91 15 0
103 1 93 0
12 1 93 0
12 103 93 0
12 103 1 0
105 22 5 0
29 22 5 0
29 105 5 0
29 105 22 0
89 24 9 0
117 24 9 0
117 89 9 0
117 89 24 0
37 111 69 0
61 111 69 0
61 37 69 0
61 37 111 0
2 73 20 0
39 73 20 0
39 2 20 0
39 2 73 0
7 64 96 0
81 64 96 0
81 7 96 0
81 7 64 0
71 50 3 0
28 50 3 0
28 71 3 0
28 71 50 0
106 114 109 0
25 114 109 0
25 106 109 0
25 106 114 0
70 92 77 0
54 92 77 0
54 70 77 0
54 70 92 0
83 85 10 0
52 85 10 0
52 83 10 0
52 83 85 0
13 43 26 0
17 43 26 0
17 13 26 0
17 13 43 0
115 101 19 0
79 101 19 0
79 115 19 0
79 115 101 0
78 41 51 0
74 41 51 0
74 78 51 0
74 78 41 0
94 68 27 0
31 68 27 0
31 94 27 0
31 94 68 0
56 88 6 0
42 88 6 0
42 56 6 0
42 56 88 0
11 47 63 0
107 47 63 0
107 11 63 0
107 11 47 0
21 55 66 0
21 55 76 0
21 55 112 0
21 66 76 0
21 66 112 0
21 76 112 0
55 66 76 0
55 66 112 0
55 76 112 0
66 76 112 0
